(set-info :smt-lib-version 2.6)
(set-logic QF_S)
(set-info :source |
Generated by: Murphy Berzish, Mitja Kulczynski, Federico Mora, Florin Manea, Joel Day, Dirk Nowotka, Vijay Ganesh, Zhengyang Lu
Generated on: 2020-10-01
Description: Translated from a collection of real-world regex queries, AutomataArk, collected by Loris D’Antoni and Fang Wang: https://github.com/lorisdanto/automatark
Application: Evaluate solvers on real-world regex queries
Target solver: Z3str3RE, CVC4, OSTRICH, Z3seq, Z3str3, Z3-Trau
Publications: Berzish, M., Kulczynski, M., Mora, F., Manea, F., Day, J. D., Nowotka, D., & Ganesh, V. (2021, July). An SMT solver for regular expressions and linear arithmetic over string length. In CAV 2021.
|)
(set-info :license "https://creativecommons.org/licenses/by/4.0/")
(set-info :category "industrial")
(set-info :status unknown)

(declare-const X String)
(assert (str.in_re X (re.++ (re.+ re.allchar) (str.to_re ".") (re.union (str.to_re "jpg") (str.to_re "jpeg") (str.to_re "JPG") (str.to_re "JPEG")) (str.to_re "\u{a}"))))
(assert (str.in_re X (re.++ (str.to_re "as.starware.com") (re.* re.allchar) (str.to_re "Casino") (re.* re.allchar) (str.to_re "LOG") (re.* re.allchar) (str.to_re "FilteredHost:e2give.com/newsurfer4/\u{a}"))))
(check-sat)

(exit)
